89
0 63 22 53 85 27 57 24 68 35 
40 72 42 36 23 13 76 20 37 56 
34 1 25 17 43 16 48 81 80 28 
38 54 7 4 59 3 26 87 18 82 
66 74 86 6 83 75 19 44 33 41 
62 71 88 50 45 65 61 79 11 70 
32 31 55 64 46 47 14 51 58 60 
5 73 69 21 29 67 9 12 39 49 
84 8 30 10 2 78 15 52 77 
